(declare-const X String)
; User-Agent\x3a\s+Host\x3A\s+proxystylesheet=Excitefhfksjzsfu\x2fahm\.uqs
(assert (not (str.in.re X (re.++ (str.to.re "User-Agent:") (re.+ (re.union (str.to.re " ") (str.to.re "\x09") (str.to.re "\x0a") (str.to.re "\x0c") (str.to.re "\x0d"))) (str.to.re "Host:") (re.+ (re.union (str.to.re " ") (str.to.re "\x09") (str.to.re "\x0a") (str.to.re "\x0c") (str.to.re "\x0d"))) (str.to.re "proxystylesheet=Excitefhfksjzsfu/ahm.uqs\x0a")))))
; ^[a-zA-Z][\w\.-]*[a-zA-Z0-9]@[a-zA-Z0-9][\w\.-]*[a-zA-Z0-9]\.[a-zA-Z][a-zA-Z\.]*[a-zA-Z]$
(assert (str.in.re X (re.++ (re.union (re.range "a" "z") (re.range "A" "Z")) (re.* (re.union (str.to.re ".") (str.to.re "-") (re.range "0" "9") (re.range "A" "Z") (re.range "a" "z") (str.to.re "_"))) (re.union (re.range "a" "z") (re.range "A" "Z") (re.range "0" "9")) (str.to.re "@") (re.union (re.range "a" "z") (re.range "A" "Z") (re.range "0" "9")) (re.* (re.union (str.to.re ".") (str.to.re "-") (re.range "0" "9") (re.range "A" "Z") (re.range "a" "z") (str.to.re "_"))) (re.union (re.range "a" "z") (re.range "A" "Z") (re.range "0" "9")) (str.to.re ".") (re.union (re.range "a" "z") (re.range "A" "Z")) (re.* (re.union (re.range "a" "z") (re.range "A" "Z") (str.to.re "."))) (re.union (re.range "a" "z") (re.range "A" "Z")) (str.to.re "\x0a"))))
(check-sat)
